data/solutions/recovery/wellformed/moderate/flexible/wellformed_moderate_instance89/23.sol
Elapsed time: 27.65
Upper bound: 7250.0
Planning weighted value: 447702.0
C[0]=7250.0
C[1]=7246.0
C[2]=7242.0
C[3]=7216.0
C[4]=7209.0
C[5]=7200.0
y[0]=3
y[1]=2
y[2]=2
y[3]=0
y[4]=1
y[5]=5
y[6]=2
y[7]=0
y[8]=5
y[9]=1
y[10]=0
y[11]=1
y[12]=1
y[13]=4
y[14]=1
y[15]=0
y[16]=0
y[17]=5
y[18]=3
y[19]=4
y[20]=2
y[21]=4
y[22]=3
y[23]=2
y[24]=2
y[25]=4
y[26]=0
y[27]=3
y[28]=3
y[29]=3
y[30]=4
y[31]=0
y[32]=4
y[33]=1
y[34]=2
y[35]=3
y[36]=5
y[37]=4
y[38]=5
y[39]=3
y[40]=5
y[41]=1
