data/solutions/recovery/wellformed/moderate/flexible/wellformed_moderate_instance89/23.log

Log started (V12.6.3.0) Fri Apr 20 19:26:56 2018

New value for default parallel thread count: 1

Problem '/tmp/tmpTEXHvk.pyomo.lp' read.
Read time = 0.00 sec. (0.13 ticks)

Problem name         : /tmp/tmpTEXHvk.pyomo.lp
Objective sense      : Minimize
Variables            :     260  [Nneg: 1,  Binary: 252,  General Integer: 7]
Objective nonzeros   :       1
Linear constraints   :      97  [Less: 48,  Equal: 49]
  Nonzeros           :    8917
  RHS nonzeros       :      85

Variables            : Min LB: 0.000000         Max UB: 1.000000       
Objective nonzeros   : Min   : 1.000000         Max   : 1.000000       
Linear constraints   :
  Nonzeros           : Min   : 1.000000         Max   : 1980.000       
  RHS nonzeros       : Min   : 1.000000         Max   : 5.000000       
Tried aggregator 2 times.
MIP Presolve eliminated 42 rows and 6 columns.
Aggregator did 7 substitutions.
Reduced MIP has 48 rows, 247 columns, and 693 nonzeros.
Reduced MIP has 246 binaries, 1 generals, 0 SOSs, and 0 indicators.
Presolve time = 0.00 sec. (2.20 ticks)
Found incumbent of value 43363.000000 after 0.00 sec. (2.69 ticks)
Probing time = 0.00 sec. (0.26 ticks)
Cover probing fixed 0 vars, tightened 4 bounds.
Tried aggregator 1 time.
Reduced MIP has 48 rows, 247 columns, and 693 nonzeros.
Reduced MIP has 246 binaries, 1 generals, 0 SOSs, and 0 indicators.
Presolve time = 0.00 sec. (0.41 ticks)
Probing time = 0.00 sec. (0.18 ticks)
Clique table members: 41.
MIP emphasis: balance optimality and feasibility.
MIP search method: dynamic search.
Parallel mode: none, using 1 thread.
Root relaxation solution time = 0.00 sec. (0.20 ticks)

        Nodes                                         Cuts/
   Node  Left     Objective  IInf  Best Integer    Best Bound    ItCnt     Gap

*     0+    0                        43363.0000     1980.0000            95.43%
      0     0     7227.1667     9    43363.0000     7227.1667       10   83.33%
*     0+    0                         7915.0000     7227.1667             8.69%
      0     0     7228.0000    11     7915.0000      Fract: 7       28    8.68%
*     0+    0                         7539.0000     7228.0000             4.13%
      0     0     7228.0000    15     7539.0000      Cuts: 11       63    4.13%
      0     0     7228.0000    18     7539.0000       Cuts: 9       80    4.13%
*     0+    0                         7410.0000     7228.0000             2.46%
      0     2     7228.0000    12     7410.0000     7228.0000       80    2.46%
Elapsed time = 0.02 sec. (17.57 ticks, tree = 0.01 MB, solutions = 4)
*   150+   97                         7316.0000     7228.0000             1.20%
*   250+  183                         7307.0000     7228.0000             1.08%
*   586+  125                         7285.0000     7228.0000             0.78%
    793    92     7228.0000    20     7285.0000     7228.0000     3990    0.78%
    794    93     7228.0000    19     7285.0000     7228.0000     3998    0.78%
    795    94     7230.2708    23     7285.0000     7228.0000     4016    0.78%
    796    95     7230.2708    22     7285.0000     7228.0000     4017    0.78%
    797    96     7230.2744    22     7285.0000     7228.0000     4018    0.78%
    798    97     7231.4936    25     7285.0000     7228.0000     4032    0.78%
    799    98     7234.8898    22     7285.0000     7228.0000     4042    0.78%
    800    99     7239.7755    21     7285.0000     7228.0000     4054    0.78%
    801   100     7239.7755    21     7285.0000     7228.0000     4055    0.78%
*   886+  165                         7274.0000     7228.0000             0.63%
*   886+  164                         7269.0000     7228.0000             0.56%
*   886+  164                         7266.0000     7228.0000             0.52%
*   986+  219                         7264.0000     7228.0000             0.50%
*  1086+  302                         7262.0000     7228.0000             0.47%
*  1086+  261                         7251.0000     7228.0000             0.32%
   1686   625     7228.0000    20     7251.0000     7228.0000    11294    0.32%
Elapsed time = 0.90 sec. (1034.01 ticks, tree = 0.19 MB, solutions = 13)
   3458  1803        cutoff           7251.0000     7228.0000    42981    0.32%
   3459  1802        cutoff           7251.0000     7228.0000    43024    0.32%
   3460  1801        cutoff           7251.0000     7228.0000    43053    0.32%
   3461  1800        cutoff           7251.0000     7228.0000    43098    0.32%
   3462  1799        cutoff           7251.0000     7228.0000    43152    0.32%
   3463  1798        cutoff           7251.0000     7228.0000    43247    0.32%
   3464  1797        cutoff           7251.0000     7228.0000    43310    0.32%
   3465  1796        cutoff           7251.0000     7228.0000    43436    0.32%
   3466  1795        cutoff           7251.0000     7228.0000    43487    0.32%
   3467  1794        cutoff           7251.0000     7228.0000    43565    0.32%
Elapsed time = 1.60 sec. (1996.19 ticks, tree = 0.53 MB, solutions = 13)
   4776  2350     7245.0537    33     7251.0000     7228.0000    79732    0.32%
   4777  2351     7245.1647    35     7251.0000     7228.0000    79736    0.32%
   4778  2352     7245.2984    37     7251.0000     7228.0000    79743    0.32%
   4779  2353     7245.4396    38     7251.0000     7228.0000    79750    0.32%
   4780  2354     7245.4444    38     7251.0000     7228.0000    79751    0.32%
   4781  2353        cutoff           7251.0000     7228.0000    79753    0.32%
   4782  2352        cutoff           7251.0000     7228.0000    79757    0.32%
   4783  2351        cutoff           7251.0000     7228.0000    79851    0.32%
   4784  2350        cutoff           7251.0000     7228.0000    79871    0.32%
   4785  2349        cutoff           7251.0000     7228.0000    79909    0.32%
Elapsed time = 2.26 sec. (2953.64 ticks, tree = 0.74 MB, solutions = 13)
   5792  2725     7239.6130    41     7251.0000     7228.0000   114208    0.32%
   5793  2726     7239.7244    40     7251.0000     7228.0000   114212    0.32%
   5794  2727     7239.7863    39     7251.0000     7228.0000   114215    0.32%
   5795  2728     7240.1139    36     7251.0000     7228.0000   114219    0.32%
   5796  2729     7244.7263    36     7251.0000     7228.0000   114252    0.32%
   5797  2728        cutoff           7251.0000     7228.0000   114256    0.32%
   5798  2727        cutoff           7251.0000     7228.0000   114257    0.32%
   5799  2728     7237.4530    44     7251.0000     7228.0000   114397    0.32%
   5800  2729     7237.4531    44     7251.0000     7228.0000   114398    0.32%
   5801  2730     7237.4544    44     7251.0000     7228.0000   114399    0.32%
Elapsed time = 2.90 sec. (3915.99 ticks, tree = 1.12 MB, solutions = 13)
   6576  3223     7237.0727    51     7251.0000     7228.0000   143061    0.32%
   6577  3222        cutoff           7251.0000     7228.0000   143097    0.32%
   6578  3223     7237.2124    52     7251.0000     7228.0000   143114    0.32%
   6579  3224     7237.3833    50     7251.0000     7228.0000   143121    0.32%
   6580  3225     7237.7666    50     7251.0000     7228.0000   143143    0.32%
   6581  3226     7237.9341    47     7251.0000     7228.0000   143153    0.32%
   6582  3226     7239.8777    45     7251.0000     7228.0000   143191    0.32%
   6583  3227     7239.8777    45     7251.0000     7228.0000   143193    0.32%
   6584  3228     7239.9289    45     7251.0000     7228.0000   143198    0.32%
   6585  3228     7245.7314    33     7251.0000     7228.0000   143257    0.32%
Elapsed time = 3.53 sec. (4877.47 ticks, tree = 1.37 MB, solutions = 13)
   7212  3585     7249.3271    46     7251.0000     7228.0000   167873    0.32%
   7213  3584        cutoff           7251.0000     7228.0000   167875    0.32%
   7214  3583        cutoff           7251.0000     7228.0000   167877    0.32%
   7215  3583     7248.3298    48     7251.0000     7228.0000   168195    0.32%
   7216  3583     7248.3298    48     7251.0000     7228.0000   168196    0.32%
   7217  3583     7248.3298    48     7251.0000     7228.0000   168197    0.32%
   7218  3584     7248.3767    48     7251.0000     7228.0000   168202    0.32%
   7219  3585     7248.3803    48     7251.0000     7228.0000   168205    0.32%
   7220  3586     7248.4302    49     7251.0000     7228.0000   168212    0.32%
   7221  3586     7248.4315    45     7251.0000     7228.0000   168213    0.32%
Elapsed time = 4.17 sec. (5848.43 ticks, tree = 1.49 MB, solutions = 13)
   7748  3867     7236.0054    51     7251.0000     7228.0000   192543    0.32%
   7749  3868     7236.9109    51     7251.0000     7228.0000   192575    0.32%
   7750  3869     7237.1244    50     7251.0000     7228.0000   192589    0.32%
   7751  3870     7237.1273    52     7251.0000     7228.0000   192591    0.32%
   7752  3871     7237.1336    53     7251.0000     7228.0000   192594    0.32%
   7753  3872     7237.1684    54     7251.0000     7228.0000   192599    0.32%
   7754  3871        cutoff           7251.0000     7228.0000   192625    0.32%
   7755  3872     7237.2284    55     7251.0000     7228.0000   192630    0.32%
   7756  3873     7239.4606    43     7251.0000     7228.0000   192676    0.32%
   7757  3874     7239.6579    48     7251.0000     7228.0000   192688    0.32%
Elapsed time = 4.79 sec. (6820.25 ticks, tree = 1.68 MB, solutions = 13)
   8607  4462     7235.7990    50     7251.0000     7228.0000   219193    0.32%
   8608  4463     7235.9521    52     7251.0000     7228.0000   219206    0.32%
   8609  4462        cutoff           7251.0000     7228.0000   219272    0.32%
   8610  4463     7235.9601    53     7251.0000     7228.0000   219273    0.32%
   8611  4464     7236.0718    55     7251.0000     7228.0000   219285    0.32%
   8612  4465     7236.0738    56     7251.0000     7228.0000   219287    0.32%
   8613  4466     7236.1742    52     7251.0000     7228.0000   219297    0.32%
   8614  4467     7236.2032    53     7251.0000     7228.0000   219301    0.32%
   8615  4468     7236.2274    55     7251.0000     7228.0000   219310    0.32%
   8616  4467        cutoff           7251.0000     7228.0000   219363    0.32%
Elapsed time = 5.41 sec. (7784.30 ticks, tree = 2.01 MB, solutions = 13)
   9387  4959     7235.5452    46     7251.0000     7228.0000   244268    0.32%
   9388  4960     7235.8691    46     7251.0000     7228.0000   244281    0.32%
   9389  4961     7236.1671    45     7251.0000     7228.0000   244289    0.32%
   9390  4962     7238.5853    45     7251.0000     7228.0000   244334    0.32%
   9391  4961        cutoff           7251.0000     7228.0000   244355    0.32%
   9392  4962     7238.7202    45     7251.0000     7228.0000   244357    0.32%
   9393  4963     7238.7885    44     7251.0000     7228.0000   244363    0.32%
   9394  4964     7239.9225    46     7251.0000     7228.0000   244388    0.32%
   9395  4965     7248.6660    36     7251.0000     7228.0000   244474    0.32%
   9396  4964     7248.6829    37     7251.0000     7228.0000   244476    0.32%
Elapsed time = 6.03 sec. (8745.31 ticks, tree = 2.27 MB, solutions = 13)
  10166  5528     7228.0000    52     7251.0000     7228.0000   265604    0.32%
  10167  5529     7228.5434    63     7251.0000     7228.0000   265867    0.32%
  10168  5530     7228.5084    64     7251.0000     7228.0000   266111    0.32%
  10169  5531     7228.5762    60     7251.0000     7228.0000   266124    0.32%
  10170  5532     7228.6801    60     7251.0000     7228.0000   266150    0.32%
  10171  5533     7228.6824    61     7251.0000     7228.0000   266155    0.32%
  10172  5534     7228.7854    63     7251.0000     7228.0000   266186    0.32%
  10173  5535     7228.9216    64     7251.0000     7228.0000   266205    0.32%
  10174  5536     7229.0057    62     7251.0000     7228.0000   266217    0.32%
  12964  7197     7234.2732    45     7251.0000     7229.3753   334704    0.30%
Elapsed time = 8.69 sec. (12561.04 ticks, tree = 4.07 MB, solutions = 13)
  16839  8966     7239.8384    37     7251.0000     7231.2788   429889    0.27%
  16840  8967     7241.0607    39     7251.0000     7231.2788   429898    0.27%
  16841  8968     7241.1299    38     7251.0000     7231.2788   429899    0.27%
  16842  8968     7241.4740    33     7251.0000     7231.2788   429907    0.27%
  16843  8967        cutoff           7251.0000     7231.2788   429912    0.27%
  16844  8966        cutoff           7251.0000     7231.2845   430013    0.27%
  16845  8966     7248.5752    39     7251.0000     7231.2871   430093    0.27%
  16846  8965     7249.9988    26     7251.0000     7231.2871   430136    0.27%
  16847  8964        cutoff           7251.0000     7231.2874   430210    0.27%
  16848  8965     7246.8407    54     7251.0000     7231.2880   430346    0.27%
Elapsed time = 11.20 sec. (16396.20 ticks, tree = 5.37 MB, solutions = 13)
  20832 10231     7236.7998    54     7251.0000     7233.2568   529297    0.24%
  20833 10232     7236.8390    58     7251.0000     7233.2568   529301    0.24%
  20834 10231        cutoff           7251.0000     7233.2568   529318    0.24%
  20835 10232     7237.8868    51     7251.0000     7233.2568   529374    0.24%
  20836 10233     7237.8876    49     7251.0000     7233.2568   529376    0.24%
  20837 10234     7237.9410    54     7251.0000     7233.2568   529382    0.24%
  20838 10235     7237.9411    53     7251.0000     7233.2568   529383    0.24%
  20839 10234        cutoff           7251.0000     7233.2568   529403    0.24%
  20840 10235     7237.9531    53     7251.0000     7233.2568   529409    0.24%
  20841 10236     7237.9663    52     7251.0000     7233.2568   529412    0.24%
Elapsed time = 13.73 sec. (20220.06 ticks, tree = 5.80 MB, solutions = 13)
  24523 11170     7239.5560    35     7251.0000     7234.9275   618348    0.22%
  24524 11171     7241.4922    40     7251.0000     7234.9275   618386    0.22%
  24525 11172     7241.4931    36     7251.0000     7234.9275   618387    0.22%
  24526 11173     7243.3840    39     7251.0000     7234.9275   618412    0.22%
  24527 11174     7244.0795    38     7251.0000     7234.9275   618422    0.22%
  24528 11173        cutoff           7251.0000     7234.9275   618427    0.22%
  24529 11174     7246.3875    32     7251.0000     7234.9275   618455    0.22%
  24530 11175     7246.5306    32     7251.0000     7234.9275   618470    0.22%
  24531 11176     7246.5307    32     7251.0000     7234.9275   618471    0.22%
  24532 11177     7248.1258    31     7251.0000     7234.9275   618476    0.22%
Elapsed time = 16.27 sec. (24041.39 ticks, tree = 7.01 MB, solutions = 13)
* 27024 11287      integral     0     7250.0000     7236.0789   676329    0.19%
  28611 11079     7238.7373    44     7250.0000     7236.8789   714229    0.18%
  28612 11080     7238.7470    46     7250.0000     7236.8789   714231    0.18%
  28613 11081     7238.7730    47     7250.0000     7236.8789   714238    0.18%
  28614 11082     7240.7504    51     7250.0000     7236.8789   714328    0.18%
  28615 11083     7240.7662    52     7250.0000     7236.8789   714334    0.18%
  28616 11084     7240.9222    50     7250.0000     7236.8789   714337    0.18%
  28617 11085     7241.0789    51     7250.0000     7236.8789   714373    0.18%
  28618 11086     7243.5636    44     7250.0000     7236.8789   714444    0.18%
  28619 11085        cutoff           7250.0000     7236.8789   714476    0.18%
  28620 11084        cutoff           7250.0000     7236.8789   714486    0.18%
Elapsed time = 18.75 sec. (27865.48 ticks, tree = 7.06 MB, solutions = 14)
  32975 10465     7240.6620    55     7250.0000     7238.8401   817198    0.15%
  32976 10466     7240.6742    51     7250.0000     7238.8401   817202    0.15%
  32977 10467     7241.1506    44     7250.0000     7238.8401   817233    0.15%
  32978 10468     7241.1512    47     7250.0000     7238.8401   817234    0.15%
  32979 10469     7241.9492    51     7250.0000     7238.8401   817264    0.15%
  32980 10470     7242.6810    44     7250.0000     7238.8401   817280    0.15%
  32981 10471     7243.7277    46     7250.0000     7238.8401   817319    0.15%
  32982 10472     7243.8356    44     7250.0000     7238.8401   817330    0.15%
  32983 10473     7243.9788    45     7250.0000     7238.8401   817354    0.15%
  32984 10474     7243.9809    43     7250.0000     7238.8401   817358    0.15%
Elapsed time = 21.23 sec. (31687.47 ticks, tree = 6.42 MB, solutions = 14)
  37751  8337     7247.8443    41     7250.0000     7241.1288   923818    0.12%
  37752  8338     7247.8443    41     7250.0000     7241.1288   923819    0.12%
  37753  8339     7247.8453    42     7250.0000     7241.1288   923820    0.12%
  37754  8340     7247.8613    43     7250.0000     7241.1288   923822    0.12%
  37755  8341     7248.6519    39     7250.0000     7241.1288   923840    0.12%
  37756  8341     7248.6706    40     7250.0000     7241.1288   923841    0.12%
  37757  8340        cutoff           7250.0000     7241.1288   923846    0.12%
  37758  8339        cutoff           7250.0000     7241.1292   923857    0.12%
  37759  8338        cutoff           7250.0000     7241.1310   923961    0.12%
  37760  8337        cutoff           7250.0000     7241.1324   923972    0.12%
Elapsed time = 23.73 sec. (35510.56 ticks, tree = 4.92 MB, solutions = 14)
  43571  4650        cutoff           7250.0000     7244.1367  1025337    0.08%
  43572  4649        cutoff           7250.0000     7244.1372  1025353    0.08%
  43573  4648        cutoff           7250.0000     7244.1377  1025355    0.08%
  43574  4647        cutoff           7250.0000     7244.1380  1025428    0.08%
  43575  4646        cutoff           7250.0000     7244.1380  1025444    0.08%
  43576  4645        cutoff           7250.0000     7244.1412  1025448    0.08%
  43577  4644        cutoff           7250.0000     7244.1414  1025459    0.08%
  43578  4643        cutoff           7250.0000     7244.1416  1025476    0.08%
  43579  4642        cutoff           7250.0000     7244.1421  1025500    0.08%
  43580  4641        cutoff           7250.0000     7244.1427  1025526    0.08%
Elapsed time = 26.23 sec. (39331.63 ticks, tree = 2.82 MB, solutions = 14)

Cover cuts applied:  94
Mixed integer rounding cuts applied:  140
Zero-half cuts applied:  2
Gomory fractional cuts applied:  4

Root node processing (before b&c):
  Real time             =    0.02 sec. (17.58 ticks)
Sequential b&c:
  Real time             =   27.61 sec. (41564.67 ticks)
                          ------------
Total (root+branch&cut) =   27.63 sec. (41582.26 ticks)

Solution pool: 14 solutions saved.

MIP - Integer optimal solution:  Objective =  7.2500000000e+03
Solution time =   27.63 sec.  Iterations = 1071894  Nodes = 48801
Deterministic time = 41582.26 ticks  (1504.82 ticks/sec)


Incumbent solution written to file '/tmp/tmpk_cpc7.cplex.sol'.
